c --- [ banner ] -------------------------------------------------------------
c 
c CaDiCaL Radically Simplified CDCL SAT Solver
c Copyright (c) 2016-2021 A. Biere, M. Fleury, N. Froleyks
c 
c Version 1.5.2 a5f15211db36c3956764e18194dd5bd63bf3b5e6
c g++ (GCC) 9.3.0 -Wall -Wextra -O3 -DNDEBUG
c Fri Oct 21 01:27:37 EDT 2022 Linux gra-login3 3.10.0-1160.66.1.el7.x86_64 x86_64
c 
c --- [ limit ] --------------------------------------------------------------
c 
c setting conflict limit to 200000 conflicts (due to '200000')
c 
c --- [ parsing input ] ------------------------------------------------------
c 
c reading DIMACS file from '33.cubes2470.adj'
c opening file to read '33.cubes2470.adj'
c found 'p cnf 6160 1595474' header
c parsed 1595474 clauses in 19.58 seconds process time
c closing file '33.cubes2470.adj'
c after reading 1457566769 bytes 1390.0 MB
c 
c --- [ options ] ------------------------------------------------------------
c 
c all options are set to their default value
c 
c --- [ solving ] ------------------------------------------------------------
c 
c time measured in process time since initialization
c 
c  seconds    reductions  redundant   irredundant
c          MB     restarts       trail       variables
c            level   conflicts       glue         remaining
c 
c * 19.58 1381  0 0   0    0    0  0% 0 1595422 2314 38%
c { 20.81 1434  0 0   0    0    0  0% 0 1595422 2314 38%
c i 22.44 1486 795 0   3   21   20 39% 13 1595422 2313 38%
c i 23.06 1495 496 0   7   37   32 34% 20 1595422 2290 37%
c i 23.13 1495 412 0   7   46   39 33% 19 1595422 2289 37%
c i 23.27 1496 376 0   7   51   43 32% 20 1595422 2288 37%
c i 23.36 1499 351 0   8   55   45 32% 22 1595422 2287 37%
c i 23.99 1502 221 0  13   99   81 30% 23 1595422 2286 37%
c i 24.28 1505 171 0  17  143  120 29% 24 1595422 2285 37%
c i 24.43 1505 154 0  17  165  132 28% 24 1595422 2284 37%
c i 24.78 1505 123 0  17  223  183 28% 23 1595422 2283 37%
c i 24.95 1505 108 0  17  263  208 28% 22 1595422 2282 37%
c i 24.97 1506 107 0  17  265  209 28% 22 1595422 2281 37%
c i 25.26 1508 104 0  17  274  216 27% 22 1595422 2280 37%
c i 25.36 1508 100 0  17  291  232 28% 22 1595422 2279 37%
c i 25.38 1508 100 0  17  294  234 28% 22 1595422 2278 37%
c i 25.40 1508 99 0  17  298  237 27% 21 1595422 2277 37%
c i 25.40 1508 98 0  17  301  239 27% 21 1595422 2276 37%
c - 29.12 1400 98 1  17  301  239 27% 21 290005 2276 37%
c i 29.51 1358 95 1  20  343  274 28% 22 290005 2275 37%
c 
c  seconds    reductions  redundant   irredundant
c          MB     restarts       trail       variables
c            level   conflicts       glue         remaining
c 
c i 29.67 1358 84 1  20  399  306 28% 21 290005 2274 37%
c i 29.67 1358 83 1  20  401  307 28% 21 290005 2273 37%
c i 29.68 1358 83 1  20  405  310 28% 21 290005 2272 37%
c i 29.68 1358 83 1  20  406  310 28% 21 290005 2271 37%
c i 29.69 1358 82 1  20  416  319 28% 21 290005 2270 37%
c i 29.71 1358 80 1  20  431  329 28% 21 290005 2269 37%
c i 29.78 1358 73 1  20  491  382 28% 21 290005 2268 37%
c i 29.78 1358 73 1  20  492  382 28% 21 290005 2267 37%
c i 29.79 1358 71 1  20  513  400 28% 21 290005 2266 37%
c i 30.12 1358 70 1  24  555  435 28% 22 290005 2265 37%
c i 30.50 1358 70 1  33  606  472 28% 23 290005 2264 37%
c i 30.62 1358 70 1  37  616  480 28% 23 290005 2263 37%
c i 31.04 1359 72 1  43  649  511 28% 24 290005 2262 37%
c i 31.19 1359 72 1  45  655  516 28% 24 290005 2261 37%
c i 31.22 1359 72 1  46  657  517 28% 24 290005 2260 37%
c i 31.36 1359 72 1  47  661  520 28% 24 290005 2259 37%
c i 31.40 1359 72 1  49  669  527 28% 24 290005 2258 37%
c i 31.53 1359 72 1  50  681  535 27% 24 290005 2257 37%
c i 31.55 1359 72 1  50  682  535 27% 24 290005 2256 37%
c i 31.80 1359 73 1  56  715  567 28% 25 290005 2255 37%
c 
c  seconds    reductions  redundant   irredundant
c          MB     restarts       trail       variables
c            level   conflicts       glue         remaining
c 
c i 31.83 1359 73 1  57  718  569 28% 25 290005 2254 37%
c i 31.95 1359 72 1  59  733  582 28% 25 290005 2253 37%
c i 32.01 1359 72 1  61  744  592 28% 25 290005 2252 37%
c i 32.14 1359 71 1  61  758  604 28% 25 290005 2251 37%
c i 32.24 1359 71 1  61  771  616 28% 25 290005 2250 37%
c i 32.30 1359 70 1  61  782  625 28% 24 290005 2249 37%
c i 32.31 1359 70 1  61  784  626 28% 24 290005 2248 36%
c i 32.40 1359 68 1  61  819  645 28% 24 290005 2247 36%
c i 32.41 1359 68 1  61  823  648 28% 24 290005 2246 36%
c i 32.41 1359 68 1  61  824  648 28% 24 290005 2245 36%
c i 32.47 1359 67 1  61  844  661 28% 24 290005 2244 36%
c i 32.47 1359 67 1  61  845  661 28% 24 290005 2243 36%
c i 32.53 1359 67 1  61  852  667 28% 24 290005 2242 36%
c i 32.58 1359 67 1  61  860  672 28% 24 290005 2239 36%
c i 32.64 1359 67 1  61  867  678 28% 24 290005 2238 36%
c i 32.87 1359 68 1  66  899  704 28% 24 290005 2237 36%
c i 33.02 1359 68 1  68  912  714 28% 25 290005 2236 36%
c i 33.02 1359 69 1  68  915  716 28% 25 290005 2235 36%
c i 33.20 1359 68 1  72  931  730 28% 25 290005 2234 36%
c i 33.70 1360 70 1  83  975  770 28% 27 290005 2233 36%
c 
c  seconds    reductions  redundant   irredundant
c          MB     restarts       trail       variables
c            level   conflicts       glue         remaining
c 
c i 33.70 1360 70 1  83  976  770 28% 26 290005 2232 36%
c i 33.75 1360 70 1  85  987  779 28% 26 290005 2231 36%
c i 33.97 1360 70 1  89 1002  793 28% 26 290005 2230 36%
c } 33.97 1360 70 1  89 1002  793 28% 26 290005 2230 36%
c [ 33.97 1360  0 1  89 1002  793  0% 0 290005 2230 36%
c O 33.97 1360  1 1  89 1003  793 15% 0 290005 2230 36%
c i 33.98 1360  0 1  89 1004  793 16% 0 290005 2179 35%
c i 33.98 1360  1 1  89 1005  793 15% 0 290005 2161 35%
c i 34.16 1360 15 1  89 1017  803 26% 8 290005 2160 35%
c i 34.22 1360 20 1  89 1025  809 28% 11 290005 2159 35%
c i 34.31 1360 26 1  89 1053  829 30% 19 290005 2158 35%
c i 34.32 1360 25 1  89 1055  830 30% 19 290005 2157 35%
c i 34.34 1360 26 1  89 1064  836 30% 20 290005 2156 35%
c i 34.39 1360 26 1  89 1079  847 30% 19 290005 2155 35%
c i 34.52 1360 27 1  89 1150  892 30% 21 290005 2154 35%
c i 34.53 1360 28 1  89 1162  897 30% 22 290005 2153 35%
c - 35.15 1471 28 2  89 1179  771 30% 22 288856 2153 35%
c i 35.33 1472 28 2  89 1206  785 30% 23 288856 2152 35%
c i 35.66 1472 28 2  89 1468  933 30% 23 288856 2151 35%
c i 35.70 1472 27 2  89 1496  945 30% 23 288856 2150 35%
c 
c  seconds    reductions  redundant   irredundant
c          MB     restarts       trail       variables
c            level   conflicts       glue         remaining
c 
c i 35.94 1472 28 2  89 1759 1112 30% 24 288856 2149 35%
c i 36.40 1472 27 2  90 2346 1459 30% 23 288856 2148 35%
c - 36.87 1470 27 3  90 2495 1141 31% 23 288841 2148 35%
c ] 37.76 1470 26 3  90 3002 1384 48% 23 288841 2148 35%
c { 37.76 1470 70 3  90 3002 1384 79% 26 288841 2148 35%
c F 37.82 1470 70 3  92 3007 1389 79% 26 288841 2148 35%
c i 38.28 1470 67 3  99 3121 1484 75% 26 288841 2147 35%
c i 38.32 1470 63 3  99 3209 1545 73% 25 288841 2146 35%
c i 38.35 1470 62 3  99 3244 1567 73% 24 288841 2145 35%
c i 38.42 1470 59 3  99 3331 1615 71% 24 288841 2139 35%
c i 38.46 1470 56 3  99 3422 1669 69% 23 288841 2138 35%
c i 38.60 1470 49 3  99 3745 1876 65% 22 288841 2137 35%
c - 39.32 1467 43 4  99 4247 1659 60% 20 288644 2133 35%
c i 41.46 1467 41 4 145 4777 2080 57% 21 288644 2132 35%
c i 41.76 1467 42 4 155 4820 2119 57% 21 288644 2131 35%
c d 43.51 1467 44 4 200 5001 2274 56% 22 288614 2119 34%
c 2 43.58 1467 44 4 200 5001 3344 56% 22 288604 2119 34%
c p 50.05 1467 44 4 200 5001 5835 56% 22 288604 2067 34%
c d 50.47 1467 44 4 200 5001 5628 56% 22 270538 2062 33%
c d 50.54 1467 44 4 200 5001 5628 56% 22 270536 2061 33%
c 
c  seconds    reductions  redundant   irredundant
c          MB     restarts       trail       variables
c            level   conflicts       glue         remaining
c 
c # 51.42 1467 39 4 202 6009 6322 53% 20 270536 2061 33%
c - 51.98 1453 37 5 202 6440 2531 53% 20 270536 2061 33%
c } 52.41 1453 35 5 218 7003 2939 52% 20 270536 2061 33%
c [ 52.41 1453 26 5 218 7003 2939 48% 23 270536 2061 33%
c - 53.21 1361 22 6 219 9022 2766 45% 19 270536 2061 33%
c I 53.56 1361 21 6 220 10011 3346 44% 18 270536 2061 33%
c - 55.80 1362 24 7 222 12032 3466 45% 20 270536 2061 33%
c ] 58.17 1362 25 7 223 15006 5530 45% 21 270536 2061 33%
c { 58.17 1362 35 7 223 15006 5530 52% 20 270536 2061 33%
c 2 58.23 1362 35 7 223 15006 6734 52% 20 270536 2061 33%
c p 60.93 1362 35 7 223 15006 9273 52% 20 270536 2060 33%
c B 61.18 1362 35 7 223 15012 9277 52% 20 270536 2060 33%
c - 62.08 1362 35 8 269 15469 4210 51% 20 270533 2060 33%
c s 67.50 1362 30 8 349 18861 6498 48% 18 268644 2060 33%
c v 72.21 1362 30 8 349 18861 6498 48% 18 268620 2060 33%
c t 72.31 1362 30 8 349 18861 6487 48% 18 268614 2060 33%
c e 73.12 1363 30 8 349 18861 6173 48% 18 266007 678 11%
c s 73.24 1363 30 8 349 18861 6173 48% 18 265033 678 11%
c - 74.67 1364 29 9 350 19336 4657 66% 18 265033 678 11%
c W 75.77 1364 27 9 354 21013 5722 68% 17 265033 678 11%
c 
c  seconds    reductions    redundant   irredundant
c          MB      restarts        trail       variables
c            level     conflicts       glue        remaining
c 
c - 78.55 1364 26 10 477 23610 5168 70% 17 265033 678 11%
c F 83.24 1364 25 10 582 28015 8284 70% 17 265033 678 11%
c - 83.57 1364 25 11 583 28306 6156 70% 17 265033 678 11%
c p 87.73 1364 24 11 628 30007 9107 70% 17 265033 675 11%
c } 88.73 1364 24 11 660 31009 9635 70% 16 265033 675 11%
c [ 88.73 1364 25 11 660 31009 9635 143% 21 265033 675 11%
c - 89.65 1364 24 12 660 33431 6437 126% 20 265024 675 11%
c B 90.50 1364 24 12 663 36018 8154 115% 20 265024 675 11%
c ] 90.71 1364 24 12 663 36325 8396 114% 20 265024 675 11%
c 1 90.71 1364 24 12 663 36325 8396 114% 20 265024 675 11%
c 
c --- [ writing output ] -----------------------------------------------------
c 
c writing simplified CNF to DIMACS file 'simp/33.cubes2470.adj.simp1'
c * 90.71 1364 24 12 663 36325 8396 114% 20 265024 675 11%
c opening file to write 'simp/33.cubes2470.adj.simp1'
c writing 'p cnf 6160 265024' header
c closing file 'simp/33.cubes2470.adj.simp1'
c after writing 104575587 bytes 99.7 MB
c wrote 265024 clauses in 0.79 seconds process time
c 
c --- [ writing extension ] --------------------------------------------------
c 
c writing extension stack to 'simp/33.cubes2470.adj.ext1'
c opening file to write 'simp/33.cubes2470.adj.ext1'
c closing file 'simp/33.cubes2470.adj.ext1'
c after writing 90075 bytes 0.1 MB
c wrote 4032 witnesses in 0.00 seconds process time
c 
c --- [ result ] -------------------------------------------------------------
c 
s SATISFIABLE
c 
c --- [ run-time profiling ] -------------------------------------------------
c 
c process time taken by individual solving procedures
c (percentage relative to process time for solving)
c 
c        50.86   71.51% search
c        37.79   53.12% unstable
c        20.27   28.49% simplify
c        19.58   27.52% parse
c        12.53   17.62% probe
c        11.54   16.22% stable
c         4.77    6.71% vivify
c         1.57    2.20% elim
c         1.23    1.73% lucky
c         0.31    0.44% walk
c         0.23    0.32% subsume
c         0.12    0.17% ternary
c   =================================
c        71.13   77.74% solve
c 
c last line shows process time for solving
c (percentage relative to total process time)
c 
c --- [ statistics ] ---------------------------------------------------------
c 
c chronological:              7350        20.23 %  of conflicts
c conflicts:                 36325       510.70    per second
c decisions:                 78801      1107.87    per second
c eliminated:                 1382        22.44 %  of all variables
c fixed:                       941        15.28 %  of all variables
c learned:                   35404        97.46 %  per conflict
c learned_lits:            4787093       100.00 %  learned literals
c minimized:                     0         0.00 %  learned literals
c shrunken:                3140271        65.60 %  learned literals
c minishrunken:             309664         6.47 %  learned literals
c propagations:            3651597         0.05 M  per second
c reduced:                   15616        42.99 %  per conflict
c rephased:                      8      4540.62    interval
c restarts:                    663        54.79    interval
c stabilizing:                   3        42.17 %  of conflicts
c substituted:                  18         0.29 %  of all variables
c subsumed:                  14174         0.41 %  of all clauses
c strengthened:               3750         0.11 %  of all clauses
c ternary:                    2767         0.66 %  of resolved
c vivified:                     32         0.00 %  of all clauses
c walked:                        1     36325.00    interval
c weakened:                   3091         3.09    average size
c 
c seconds are measured in process time for solving
c 
c --- [ resources ] ----------------------------------------------------------
c 
c total process time since initialization:        91.50    seconds
c total real time since initialization:           93.76    seconds
c maximum resident set size of process:         1581.08    MB
c 
c --- [ shutting down ] ------------------------------------------------------
c 
c exit 10
WARNING! DIMACS header mismatch: wrong number of variables.
============================[ Problem Statistics ]=============================
|                                                                             |
|  Number of variables:          3118                                         |
|  Number of clauses:          265026                                         |
|  Parse time:                   1.44 s                                       |
|  Simplification time:          0.05 s                                       |
|                                                                             |
============================[ Search Statistics ]====================================================
| Conflicts |          ORIGINAL         |          LEARNT          | Num Sols |      SUBGRAPHS      |
|           |    Vars  Clauses Literals |    Limit  Clauses Lit/Cl |          | Canonical Noncanon. |
=====================================================================================================
|       180 |    3018   265106 22622881 |     2000      180     37 |        0 |        34        80 |
|       333 |    3018   265109 22622947 |     2000      333     50 |        0 |        42        83 |
|       928 |    3018   265479 22626873 |     2000      928     33 |        0 |       170       453 |
|      1271 |    3018   265485 22626955 |     2000     1271     50 |        0 |       177       459 |
|      1795 |    3018   265503 22627233 |     2000     1795     61 |        0 |       180       477 |
|      2586 |    3018   265535 22627794 |     3600     1586     43 |        0 |       189       509 |
|      3939 |    3018   265749 22629790 |     3600     2939     53 |        0 |       260       723 |
|      5670 |    3018   265772 22630441 |     5003     2873     45 |        0 |       277       746 |
|      8332 |    3018   265872 22632143 |     6308     3040     35 |        0 |       303       846 |
|     12388 |    3018   266084 22635265 |     7562     3950     31 |        0 |       354      1058 |
|     18459 |    3018   266389 22639947 |     8782     6241     34 |        0 |       419      1363 |
|     27350 |    3018   266631 22644043 |    11196     5746     23 |        0 |       500      1605 |
|     40491 |    3018   266798 22646906 |    13602     7093     25 |        0 |       567      1772 |
|     60227 |    3018   267073 22652053 |    16010    12637     43 |        0 |       660      2047 |
|     89723 |    3018   267377 22656513 |    19604    16327     47 |        0 |       771      2351 |
|    134086 |    3018   267951 22667615 |    24408    17894     42 |        0 |      1006      2925 |
|    200038 |    3018   268219 22672766 |    30415    16853     29 |        0 |      1214      3193 |
|    298849 |    3017   268504 22678513 |    36411    33660     49 |        0 |      1434      3478 |
|    447299 |    3017   269165 22694404 |    44815    42114     51 |        0 |      2008      4139 |
|    670282 |    2986   269589 22708567 |    55533    41815     41 |        0 |      2743      5439 |
=====================================================================================================
Number of solutions   : 0
Canonical subgraphs   : 3312           (6 /sec)
          order  3    : 1              (100000 /sec)
          order  4    : 1              (333333 /sec)
          order  5    : 1              (125000 /sec)
          order  6    : 1              (32258 /sec)
          order  7    : 1              (4739 /sec)
          order  8    : 1              (657 /sec)
          order  9    : 2              (117 /sec)
          order 10    : 6              (32 /sec)
          order 11    : 23             (9 /sec)
          order 12    : 112            (5 /sec)
          order 13    : 220            (6 /sec)
          order 14    : 107            (7 /sec)
          order 15    : 1422           (6 /sec)
          order 16    : 1021           (5 /sec)
          order 17    : 291            (5 /sec)
          order 18    : 71             (4 /sec)
          order 19    : 11             (4 /sec)
          order 20    : 10             (4 /sec)
          order 21    : 10             (4 /sec)
          order 22    : 0              (-nan /sec)
Noncanonical subgraphs: 6373           (216 /sec)
          order  3    : 0              (-nan /sec)
          order  4    : 0              (-nan /sec)
          order  5    : 0              (-nan /sec)
          order  6    : 0              (-nan /sec)
          order  7    : 0              (-nan /sec)
          order  8    : 0              (-nan /sec)
          order  9    : 0              (-nan /sec)
          order 10    : 0              (-nan /sec)
          order 11    : 0              (-nan /sec)
          order 12    : 0              (-nan /sec)
          order 13    : 580            (11967 /sec)
          order 14    : 1280           (1887 /sec)
          order 15    : 3010           (511 /sec)
          order 16    : 761            (651 /sec)
          order 17    : 726            (39 /sec)
          order 18    : 6              (18 /sec)
          order 19    : 0              (-nan /sec)
          order 20    : 0              (-nan /sec)
          order 21    : 0              (-nan /sec)
Canonicity checking   : 594.858 s
Noncanonicity checking: 29.5539 s
Total canonicity time : 624.412 s
database reductions   : 54
restarts              : 2045
conflicts             : 971727         (996 /sec)
decisions             : 1240834        (0.00 % random) (1271 /sec)
propagations          : 42516399       (43566 /sec)
conflict literals     : 75005455       (55.30 % deleted)
actual reward         : 0.288782
Memory used           : 292.00 MB
CPU time              : 975.914 s

UNSATISFIABLE
